
  20    0


   0  10 2 3 4 5 6 7 16 17 18 19 
   8   5 15 13 10 9 8 
   8   4 13 12 11 8 
   1   2 14 8 
  10   2 12 11 
   8   1 10 
   1   1 9 
   9   1 20
  10   1 20
   8   1 20
   3   1 20
   6   1 20
   5   1 20
   7   1 20
   6   1 20
   1   1 20
   7   1 20
   2   1 20
   7   1 20
   0   0 
